nN = 8;
nR = 32;
nH = 2;

a = [[17, 18, 21, 22, 19, 25, 21, 18, 16, 23, 15, 19, 23, 17, 15, 23, 20, 15, 17, 21, 25, 16, 15, 15, 22, 20, 20, 21, 25, 20, 18, 24], [17, 22, 23, 17, 24, 25, 21, 16, 20, 23, 22, 18, 15, 24, 19, 25, 16, 19, 18, 21, 21, 15, 25, 20, 15, 25, 23, 19, 19, 25, 19, 21], [20, 19, 19, 24, 17, 24, 21, 19, 17, 15, 18, 16, 19, 18, 15, 21, 18, 18, 24, 23, 15, 24, 18, 22, 17, 20, 23, 17, 17, 17, 24, 22], [21, 17, 21, 20, 16, 22, 22, 23, 17, 25, 23, 25, 16, 21, 24, 25, 25, 18, 16, 23, 22, 22, 18, 15, 16, 25, 21, 18, 18, 22, 17, 17], [25, 20, 17, 19, 24, 22, 18, 16, 18, 15, 25, 20, 24, 20, 20, 16, 19, 23, 15, 19, 19, 21, 24, 24, 23, 22, 25, 23, 23, 21, 20, 22], [15, 15, 15, 21, 24, 16, 20, 19, 19, 24, 18, 20, 17, 24, 21, 23, 23, 22, 19, 17, 15, 19, 20, 17, 15, 17, 18, 20, 18, 22, 16, 25], [25, 18, 21, 23, 16, 18, 19, 24, 16, 23, 20, 18, 25, 24, 25, 16, 18, 16, 17, 19, 25, 20, 16, 24, 15, 25, 23, 25, 16, 18, 19, 18], [15, 20, 24, 20, 17, 15, 21, 25, 15, 22, 25, 23, 15, 19, 20, 24, 22, 25, 16, 18, 21, 23, 23, 18, 20, 23, 20, 15, 19, 23, 22, 18]];
c = [[[0, 0, 0, 0, 0, 0, 0, 0, 0, 0, 0, 0, 0, 0, 0, 0, 0, 0, 0, 0, 0, 0, 0, 0, 0, 0, 0, 0, 0, 0, 0, 0], [45, 41, 34, 33, 40, 33, 41, 44, 33, 44, 42, 46, 31, 44, 35, 38, 33, 33, 40, 32, 34, 50, 37, 47, 33, 38, 37, 40, 49, 36, 32, 42], [34, 44, 42, 34, 35, 32, 37, 36, 46, 42, 35, 30, 43, 32, 34, 35, 48, 35, 46, 45, 41, 40, 40, 39, 49, 44, 34, 46, 41, 48, 36, 45], [46, 47, 46, 42, 37, 46, 47, 36, 41, 43, 39, 50, 33, 38, 49, 39, 36, 31, 48, 44, 30, 31, 39, 40, 37, 35, 50, 50, 36, 34, 40, 50], [43, 44, 33, 46, 48, 31, 37, 47, 39, 42, 35, 39, 48, 50, 38, 38, 35, 36, 33, 30, 39, 42, 44, 30, 50, 39, 43, 35, 33, 47, 30, 44], [33, 50, 31, 46, 32, 33, 39, 50, 38, 41, 34, 30, 45, 34, 32, 42, 30, 44, 30, 38, 44, 33, 45, 47, 34, 50, 33, 50, 36, 40, 44, 35], [45, 33, 46, 32, 42, 46, 30, 35, 35, 38, 30, 46, 38, 38, 46, 43, 45, 34, 35, 39, 36, 36, 50, 35, 46, 33, 36, 49, 42, 30, 48, 35], [47, 43, 50, 50, 30, 47, 39, 47, 49, 32, 44, 45, 31, 33, 45, 38, 49, 40, 37, 46, 32, 45, 37, 32, 40, 41, 36, 37, 36, 30, 34, 37]], [[0, 0, 0, 0, 0, 0, 0, 0, 0, 0, 0, 0, 0, 0, 0, 0, 0, 0, 0, 0, 0, 0, 0, 0, 0, 0, 0, 0, 0, 0, 0, 0], [0, 0, 0, 0, 0, 0, 0, 0, 0, 0, 0, 0, 0, 0, 0, 0, 0, 0, 0, 0, 0, 0, 0, 0, 0, 0, 0, 0, 0, 0, 0, 0], [50, 34, 40, 44, 38, 37, 31, 37, 32, 32, 45, 47, 49, 50, 46, 34, 35, 48, 43, 47, 33, 36, 50, 41, 45, 46, 35, 35, 42, 33, 50, 50], [39, 30, 34, 37, 40, 35, 36, 43, 30, 39, 32, 38, 36, 32, 37, 45, 50, 36, 43, 43, 36, 38, 40, 49, 39, 33, 32, 47, 47, 49, 42, 39], [37, 42, 37, 41, 42, 35, 46, 38, 47, 47, 34, 34, 42, 37, 36, 40, 46, 49, 33, 34, 38, 35, 43, 49, 33, 36, 45, 43, 50, 49, 44, 43], [42, 48, 43, 39, 42, 50, 37, 49, 30, 41, 47, 30, 48, 45, 48, 49, 36, 44, 40, 45, 32, 41, 47, 39, 39, 43, 43, 40, 32, 33, 39, 42], [35, 41, 50, 34, 36, 36, 46, 38, 50, 42, 42, 36, 38, 42, 47, 30, 49, 39, 47, 32, 41, 50, 32, 47, 31, 40, 45, 36, 33, 44, 34, 30], [46, 35, 38, 34, 47, 38, 39, 36, 36, 30, 45, 48, 34, 32, 49, 33, 50, 39, 34, 40, 39, 47, 45, 35, 50, 48, 36, 33, 36, 43, 34, 46]], [[0, 0, 0, 0, 0, 0, 0, 0, 0, 0, 0, 0, 0, 0, 0, 0, 0, 0, 0, 0, 0, 0, 0, 0, 0, 0, 0, 0, 0, 0, 0, 0], [0, 0, 0, 0, 0, 0, 0, 0, 0, 0, 0, 0, 0, 0, 0, 0, 0, 0, 0, 0, 0, 0, 0, 0, 0, 0, 0, 0, 0, 0, 0, 0], [0, 0, 0, 0, 0, 0, 0, 0, 0, 0, 0, 0, 0, 0, 0, 0, 0, 0, 0, 0, 0, 0, 0, 0, 0, 0, 0, 0, 0, 0, 0, 0], [44, 37, 39, 45, 33, 48, 43, 40, 41, 34, 39, 39, 50, 44, 38, 38, 43, 30, 31, 47, 40, 38, 49, 31, 40, 32, 30, 43, 49, 49, 45, 39], [45, 43, 44, 50, 30, 48, 38, 34, 46, 49, 43, 37, 33, 43, 32, 50, 41, 50, 49, 34, 36, 35, 40, 37, 37, 35, 42, 38, 33, 48, 43, 36], [49, 47, 48, 37, 45, 41, 45, 49, 36, 49, 38, 35, 47, 38, 38, 34, 35, 45, 30, 32, 50, 47, 45, 41, 49, 31, 43, 45, 36, 42, 46, 46], [43, 39, 47, 33, 40, 44, 39, 30, 39, 38, 35, 38, 35, 44, 36, 43, 32, 33, 46, 31, 46, 33, 45, 32, 37, 37, 44, 31, 48, 38, 30, 50], [33, 30, 44, 30, 41, 46, 30, 33, 47, 49, 30, 30, 33, 43, 45, 32, 50, 49, 41, 42, 36, 40, 35, 41, 42, 48, 36, 36, 38, 34, 45, 45]], [[0, 0, 0, 0, 0, 0, 0, 0, 0, 0, 0, 0, 0, 0, 0, 0, 0, 0, 0, 0, 0, 0, 0, 0, 0, 0, 0, 0, 0, 0, 0, 0], [0, 0, 0, 0, 0, 0, 0, 0, 0, 0, 0, 0, 0, 0, 0, 0, 0, 0, 0, 0, 0, 0, 0, 0, 0, 0, 0, 0, 0, 0, 0, 0], [0, 0, 0, 0, 0, 0, 0, 0, 0, 0, 0, 0, 0, 0, 0, 0, 0, 0, 0, 0, 0, 0, 0, 0, 0, 0, 0, 0, 0, 0, 0, 0], [0, 0, 0, 0, 0, 0, 0, 0, 0, 0, 0, 0, 0, 0, 0, 0, 0, 0, 0, 0, 0, 0, 0, 0, 0, 0, 0, 0, 0, 0, 0, 0], [48, 41, 44, 42, 43, 47, 35, 31, 33, 41, 49, 35, 42, 37, 42, 33, 47, 45, 30, 43, 43, 42, 44, 37, 34, 34, 39, 48, 41, 50, 50, 36], [43, 49, 39, 47, 44, 37, 36, 33, 36, 50, 41, 37, 31, 48, 36, 34, 43, 42, 39, 34, 41, 34, 37, 32, 37, 35, 36, 49, 42, 36, 48, 42], [49, 49, 37, 48, 47, 48, 45, 46, 42, 48, 41, 31, 33, 41, 48, 33, 31, 47, 40, 45, 48, 30, 37, 33, 30, 50, 42, 47, 32, 42, 43, 36], [49, 39, 41, 34, 34, 40, 48, 31, 38, 35, 50, 33, 34, 32, 33, 32, 35, 37, 41, 33, 33, 45, 41, 41, 47, 30, 35, 31, 42, 31, 30, 42]], [[0, 0, 0, 0, 0, 0, 0, 0, 0, 0, 0, 0, 0, 0, 0, 0, 0, 0, 0, 0, 0, 0, 0, 0, 0, 0, 0, 0, 0, 0, 0, 0], [0, 0, 0, 0, 0, 0, 0, 0, 0, 0, 0, 0, 0, 0, 0, 0, 0, 0, 0, 0, 0, 0, 0, 0, 0, 0, 0, 0, 0, 0, 0, 0], [0, 0, 0, 0, 0, 0, 0, 0, 0, 0, 0, 0, 0, 0, 0, 0, 0, 0, 0, 0, 0, 0, 0, 0, 0, 0, 0, 0, 0, 0, 0, 0], [0, 0, 0, 0, 0, 0, 0, 0, 0, 0, 0, 0, 0, 0, 0, 0, 0, 0, 0, 0, 0, 0, 0, 0, 0, 0, 0, 0, 0, 0, 0, 0], [0, 0, 0, 0, 0, 0, 0, 0, 0, 0, 0, 0, 0, 0, 0, 0, 0, 0, 0, 0, 0, 0, 0, 0, 0, 0, 0, 0, 0, 0, 0, 0], [30, 41, 47, 45, 35, 33, 31, 46, 30, 41, 47, 44, 39, 30, 45, 34, 45, 44, 31, 41, 49, 32, 31, 32, 42, 39, 40, 40, 40, 35, 38, 48], [33, 45, 45, 50, 33, 42, 33, 33, 35, 33, 33, 48, 33, 46, 44, 31, 32, 50, 38, 46, 46, 43, 48, 50, 39, 42, 39, 46, 50, 30, 38, 41], [34, 49, 30, 50, 49, 45, 48, 41, 31, 50, 31, 35, 41, 37, 36, 38, 40, 43, 41, 41, 49, 44, 39, 30, 38, 36, 41, 41, 33, 41, 38, 41]], [[0, 0, 0, 0, 0, 0, 0, 0, 0, 0, 0, 0, 0, 0, 0, 0, 0, 0, 0, 0, 0, 0, 0, 0, 0, 0, 0, 0, 0, 0, 0, 0], [0, 0, 0, 0, 0, 0, 0, 0, 0, 0, 0, 0, 0, 0, 0, 0, 0, 0, 0, 0, 0, 0, 0, 0, 0, 0, 0, 0, 0, 0, 0, 0], [0, 0, 0, 0, 0, 0, 0, 0, 0, 0, 0, 0, 0, 0, 0, 0, 0, 0, 0, 0, 0, 0, 0, 0, 0, 0, 0, 0, 0, 0, 0, 0], [0, 0, 0, 0, 0, 0, 0, 0, 0, 0, 0, 0, 0, 0, 0, 0, 0, 0, 0, 0, 0, 0, 0, 0, 0, 0, 0, 0, 0, 0, 0, 0], [0, 0, 0, 0, 0, 0, 0, 0, 0, 0, 0, 0, 0, 0, 0, 0, 0, 0, 0, 0, 0, 0, 0, 0, 0, 0, 0, 0, 0, 0, 0, 0], [0, 0, 0, 0, 0, 0, 0, 0, 0, 0, 0, 0, 0, 0, 0, 0, 0, 0, 0, 0, 0, 0, 0, 0, 0, 0, 0, 0, 0, 0, 0, 0], [34, 31, 47, 49, 30, 49, 43, 47, 39, 47, 44, 35, 34, 43, 45, 34, 47, 37, 49, 30, 49, 39, 40, 33, 41, 40, 37, 45, 31, 39, 44, 38], [33, 30, 30, 49, 44, 31, 40, 39, 45, 36, 40, 35, 35, 30, 48, 47, 35, 45, 39, 45, 31, 30, 49, 38, 47, 36, 37, 31, 47, 44, 38, 38]], [[0, 0, 0, 0, 0, 0, 0, 0, 0, 0, 0, 0, 0, 0, 0, 0, 0, 0, 0, 0, 0, 0, 0, 0, 0, 0, 0, 0, 0, 0, 0, 0], [0, 0, 0, 0, 0, 0, 0, 0, 0, 0, 0, 0, 0, 0, 0, 0, 0, 0, 0, 0, 0, 0, 0, 0, 0, 0, 0, 0, 0, 0, 0, 0], [0, 0, 0, 0, 0, 0, 0, 0, 0, 0, 0, 0, 0, 0, 0, 0, 0, 0, 0, 0, 0, 0, 0, 0, 0, 0, 0, 0, 0, 0, 0, 0], [0, 0, 0, 0, 0, 0, 0, 0, 0, 0, 0, 0, 0, 0, 0, 0, 0, 0, 0, 0, 0, 0, 0, 0, 0, 0, 0, 0, 0, 0, 0, 0], [0, 0, 0, 0, 0, 0, 0, 0, 0, 0, 0, 0, 0, 0, 0, 0, 0, 0, 0, 0, 0, 0, 0, 0, 0, 0, 0, 0, 0, 0, 0, 0], [0, 0, 0, 0, 0, 0, 0, 0, 0, 0, 0, 0, 0, 0, 0, 0, 0, 0, 0, 0, 0, 0, 0, 0, 0, 0, 0, 0, 0, 0, 0, 0], [0, 0, 0, 0, 0, 0, 0, 0, 0, 0, 0, 0, 0, 0, 0, 0, 0, 0, 0, 0, 0, 0, 0, 0, 0, 0, 0, 0, 0, 0, 0, 0], [45, 37, 33, 36, 33, 42, 50, 35, 32, 37, 34, 46, 43, 36, 37, 32, 47, 33, 31, 32, 32, 42, 47, 40, 30, 41, 34, 32, 49, 42, 32, 50]], [[0, 0, 0, 0, 0, 0, 0, 0, 0, 0, 0, 0, 0, 0, 0, 0, 0, 0, 0, 0, 0, 0, 0, 0, 0, 0, 0, 0, 0, 0, 0, 0], [0, 0, 0, 0, 0, 0, 0, 0, 0, 0, 0, 0, 0, 0, 0, 0, 0, 0, 0, 0, 0, 0, 0, 0, 0, 0, 0, 0, 0, 0, 0, 0], [0, 0, 0, 0, 0, 0, 0, 0, 0, 0, 0, 0, 0, 0, 0, 0, 0, 0, 0, 0, 0, 0, 0, 0, 0, 0, 0, 0, 0, 0, 0, 0], [0, 0, 0, 0, 0, 0, 0, 0, 0, 0, 0, 0, 0, 0, 0, 0, 0, 0, 0, 0, 0, 0, 0, 0, 0, 0, 0, 0, 0, 0, 0, 0], [0, 0, 0, 0, 0, 0, 0, 0, 0, 0, 0, 0, 0, 0, 0, 0, 0, 0, 0, 0, 0, 0, 0, 0, 0, 0, 0, 0, 0, 0, 0, 0], [0, 0, 0, 0, 0, 0, 0, 0, 0, 0, 0, 0, 0, 0, 0, 0, 0, 0, 0, 0, 0, 0, 0, 0, 0, 0, 0, 0, 0, 0, 0, 0], [0, 0, 0, 0, 0, 0, 0, 0, 0, 0, 0, 0, 0, 0, 0, 0, 0, 0, 0, 0, 0, 0, 0, 0, 0, 0, 0, 0, 0, 0, 0, 0], [0, 0, 0, 0, 0, 0, 0, 0, 0, 0, 0, 0, 0, 0, 0, 0, 0, 0, 0, 0, 0, 0, 0, 0, 0, 0, 0, 0, 0, 0, 0, 0]]];

q = [[[15, 119], [5, 124], [24, 115], [5, 114], [15, 106], [11, 115], [10, 122], [6, 122], [25, 121], [19, 108], [8, 117], [10, 119], [14, 113], [22, 118], [17, 107], [8, 111], [19, 119], [20, 125], [8, 107], [8, 114], [22, 105], [12, 112], [12, 111], [18, 106], [15, 119], [17, 120], [9, 121], [14, 107], [9, 124], [11, 108], [9, 109], [25, 108]], [[24, 115], [11, 121], [18, 115], [21, 111], [25, 125], [15, 105], [9, 112], [22, 113], [11, 107], [25, 109], [16, 110], [23, 125], [25, 117], [16, 117], [16, 109], [6, 108], [12, 111], [5, 114], [22, 119], [15, 123], [19, 123], [25, 114], [13, 122], [18, 108], [25, 108], [22, 121], [18, 124], [11, 117], [17, 106], [12, 116], [15, 119], [11, 114]], [[12, 122], [21, 113], [14, 115], [8, 111], [25, 110], [6, 110], [18, 122], [18, 107], [20, 122], [18, 109], [8, 121], [11, 121], [11, 110], [20, 115], [16, 122], [24, 124], [13, 122], [23, 112], [7, 118], [22, 123], [12, 107], [24, 121], [13, 116], [7, 105], [10, 112], [8, 108], [22, 110], [22, 115], [22, 108], [24, 108], [20, 109], [13, 120]], [[23, 114], [5, 111], [9, 120], [6, 118], [11, 112], [8, 115], [18, 106], [19, 108], [21, 114], [8, 125], [7, 117], [14, 111], [11, 115], [12, 110], [24, 120], [7, 119], [21, 122], [6, 119], [14, 115], [12, 115], [13, 118], [5, 112], [22, 121], [25, 111], [20, 120], [9, 113], [8, 117], [5, 125], [10, 105], [13, 118], [17, 108], [5, 115]], [[7, 110], [10, 112], [21, 119], [12, 108], [18, 105], [6, 122], [20, 106], [13, 110], [10, 108], [11, 114], [9, 125], [18, 113], [7, 118], [21, 110], [6, 106], [19, 124], [7, 108], [11, 123], [12, 108], [10, 115], [14, 125], [12, 113], [21, 109], [10, 114], [19, 108], [21, 111], [25, 119], [8, 107], [18, 106], [18, 120], [18, 107], [19, 108]], [[14, 114], [18, 114], [15, 110], [23, 118], [17, 125], [8, 111], [25, 105], [14, 111], [24, 115], [9, 111], [7, 123], [18, 110], [11, 107], [5, 114], [11, 117], [13, 109], [18, 119], [25, 107], [20, 118], [17, 105], [21, 106], [23, 115], [22, 112], [9, 111], [18, 110], [8, 119], [7, 113], [5, 111], [6, 122], [7, 123], [14, 122], [15, 125]], [[20, 115], [9, 113], [21, 122], [13, 120], [19, 115], [21, 117], [5, 124], [18, 119], [22, 124], [11, 109], [8, 113], [20, 119], [21, 125], [19, 124], [6, 111], [20, 109], [10, 124], [15, 118], [19, 116], [13, 115], [20, 106], [20, 110], [5, 115], [13, 112], [11, 118], [22, 107], [12, 117], [24, 124], [5, 120], [24, 108], [20, 112], [12, 122]], [[19, 110], [19, 105], [14, 105], [19, 123], [9, 114], [15, 117], [23, 125], [25, 114], [5, 120], [13, 122], [15, 111], [16, 110], [25, 124], [23, 115], [21, 109], [22, 119], [14, 118], [24, 121], [16, 117], [20, 115], [16, 120], [8, 123], [24, 112], [15, 122], [14, 123], [20, 111], [10, 112], [15, 125], [14, 123], [18, 123], [7, 109], [22, 125]]];
Q = [[44, 367], [54, 368], [51, 367], [40, 369], [45, 362], [46, 366], [49, 373], [54, 375]];
